18917.8
104 99 0 6 9 11 10 8 5 1 103 100 101 102 2 4 7 12 3 98 52 95 94 87 83 82 76 88 84 81 77 78 80 85 89 90 86 79 75 74 73 72 71 68 67 58 59 64 65 66 61 60 56 55 93 91 92 96 97 13 14 17 18 38 39 47 48 43 44 49 50 51 46 45 42 41 37 54 31 30 23 22 21 20 24 29 32 33 28 25 26 27 34 36 35 40 19 16 15 53 69 70 63 62 57 
